NAME : att48.tsp
COMMENT : Optimal tour for att48.tsp
TYPE : TOUR
DIMENSION : 48
Total Length: 35082.198428481955
TOUR_SECTION
1
8
9
3
40
15
46
38
31
44
18
7
28
6
37
19
27
17
43
30
36
33
12
20
47
11
23
14
25
13
21
32
39
48
5
42
24
10
45
35
4
26
2
29
34
41
16
22
-1
EOF
